log/Reading instance from file data/g01.dat
Number of nodes: 11
Number of edges: 32
initialize CPLEX ... done.
Calling CPLEX solve ...
Version identifier: 12.10.0.0 | 2019-11-26 | 843d4de
CPXPARAM_Threads                                 1
CPXPARAM_TimeLimit                               3600
CPXPARAM_WorkMem                                 8192
Tried aggregator 2 times.
MIP Presolve eliminated 16 rows and 20 columns.
MIP Presolve modified 62 coefficients.
Aggregator did 5 substitutions.
Reduced MIP has 77 rows, 113 columns, and 373 nonzeros.
Reduced MIP has 59 binaries, 54 generals, 0 SOSs, and 0 indicators.
Presolve time = 0.00 sec. (0.54 ticks)
Found incumbent of value 2339.000000 after 0.00 sec. (0.91 ticks)
Probing fixed 0 vars, tightened 15 bounds.
Probing time = 0.00 sec. (0.15 ticks)
Tried aggregator 1 time.
Detecting symmetries...
Reduced MIP has 77 rows, 113 columns, and 373 nonzeros.
Reduced MIP has 59 binaries, 54 generals, 0 SOSs, and 0 indicators.
Presolve time = 0.00 sec. (0.26 ticks)
Probing time = 0.00 sec. (0.13 ticks)
Cover probing fixed 0 vars, tightened 13 bounds.
Clique table members: 55.
MIP emphasis: balance optimality and feasibility.
MIP search method: dynamic search.
Parallel mode: none, using 1 thread.
Root relaxation solution time = 0.00 sec. (0.22 ticks)

        Nodes                                         Cuts/
   Node  Left     Objective  IInf  Best Integer    Best Bound    ItCnt     Gap

*     0+    0                         2339.0000        0.0000           100.00%
      0     0      367.2000     8     2339.0000      367.2000       38   84.30%
      0     0      417.8000     8     2339.0000      Cuts: 23       59   82.14%
*     0+    0                          535.0000      417.8000            21.91%
*     0     0      integral     0      477.0000      Cuts: 21       66    0.00%
      0     0        cutoff            477.0000      477.0000       66    0.00%
Elapsed time = 0.02 sec. (6.02 ticks, tree = 0.01 MB, solutions = 3)

Cover cuts applied:  2
Implied bound cuts applied:  3
Flow cuts applied:  5
Mixed integer rounding cuts applied:  2
Zero-half cuts applied:  10
Lift and project cuts applied:  5
Gomory fractional cuts applied:  6

Root node processing (before b&c):
  Real time             =    0.02 sec. (6.03 ticks)
Sequential b&c:
  Real time             =    0.00 sec. (0.00 ticks)
                          ------------
Total (root+branch&cut) =    0.02 sec. (6.03 ticks)
SOLUTION:

x(0,10)[0..1]  = 1
x(3,1)[0..1]  = 1
x(6,3)[0..1]  = 1
x(7,6)[0..1]  = 1
x(10,7)[0..1]  = 1
z(1)[0..1]  = 1
z(3)[0..1]  = 1
z(6)[0..1]  = 1
z(7)[0..1]  = 1
z(10)[0..1]  = 1


CPLEX finished.

CPLEX status: Optimal
Branch-and-Bound nodes: 0
Objective value: 477
CPU time: 0.01

